NAME 
OBJSENSE MAX
ROWS
 N  OBJ
 L  c1      
 L  c2      
 L  c3      
 L  c4      
 L  c5      
 L  c6      
 L  c7      
 L  c8      
 L  c9      
 L  c10     
 L  c11     
 L  c12     
 L  c13     
 L  c14     
 L  c15     
 L  c16     
 L  c17     
 L  c18     
 L  c19     
 L  c20     
 L  c21     
 L  c22     
 L  c23     
 L  c24     
 L  c25     
 L  c26     
 L  c27     
 L  c28     
 L  c29     
 L  c30     
 L  c31     
 L  c32     
 L  c33     
 L  c34     
 L  c35     
 L  c36     
 L  c37     
 L  c38     
 L  c39     
 L  c40     
 L  c41     
 L  c42     
 L  c43     
 L  c44     
 L  c45     
 L  c46     
 L  c47     
 L  c48     
 L  c49     
 L  c50     
 L  c51     
 L  c52     
 L  c53     
 L  c54     
 L  c55     
 L  c56     
 L  c57     
 L  c58     
 L  c59     
 L  c60     
 L  c61     
 L  c62     
 L  c63     
 L  c64     
 L  c65     
 L  c66     
 L  c67     
 L  c68     
 L  c69     
 L  c70     
 L  c71     
 L  c72     
 L  c73     
 L  c74     
 L  c75     
 L  c76     
 L  c77     
 L  c78     
 L  c79     
 L  c80     
 L  c81     
 L  c82     
 L  c83     
 L  c84     
 L  c85     
 L  c86     
 L  c87     
 L  c88     
 L  c89     
 L  c90     
 L  c91     
 L  c92     
 L  c93     
 L  c94     
 L  c95     
 L  c96     
 L  c97     
 L  c98     
 L  c99     
 L  c100    
 L  c101    
 L  c102    
 L  c103    
 L  c104    
 L  c105    
 L  c106    
 L  c107    
 L  c108    
 L  c109    
 L  c110    
 L  c111    
 L  c112    
 L  c113    
 L  c114    
 L  c115    
 L  c116    
 L  c117    
 L  c118    
 L  c119    
 L  c120    
COLUMNS
    MARKER    'MARKER'                 'INTORG'
    x1        OBJ       1
    x1        c1        1
    x1        c2        1
    x1        c3        1
    x1        c7        1
    x1        c8        1
    x1        c25       1
    x1        c26       1
    x1        c27       1
    x2        OBJ       1
    x2        c1        1
    x2        c2        1
    x2        c4        1
    x2        c7        1
    x2        c8        1
    x2        c25       1
    x2        c26       1
    x2        c28       1
    x3        OBJ       1
    x3        c1        1
    x3        c3        1
    x3        c5        1
    x3        c9        1
    x3        c11       1
    x3        c25       1
    x3        c27       1
    x3        c29       1
    x4        OBJ       1
    x4        c2        1
    x4        c4        1
    x4        c6        1
    x4        c10       1
    x4        c12       1
    x4        c26       1
    x4        c28       1
    x4        c30       1
    x5        OBJ       1
    x5        c3        1
    x5        c5        1
    x5        c6        1
    x5        c9        1
    x5        c11       1
    x5        c27       1
    x5        c29       1
    x5        c30       1
    x6        OBJ       1
    x6        c4        1
    x6        c5        1
    x6        c6        1
    x6        c10       1
    x6        c12       1
    x6        c28       1
    x6        c29       1
    x6        c30       1
    x7        OBJ       1
    x7        c1        1
    x7        c2        1
    x7        c7        1
    x7        c8        1
    x7        c13       1
    x7        c31       1
    x7        c32       1
    x7        c37       1
    x8        OBJ       1
    x8        c1        1
    x8        c2        1
    x8        c7        1
    x8        c8        1
    x8        c14       1
    x8        c31       1
    x8        c32       1
    x8        c38       1
    x9        OBJ       1
    x9        c3        1
    x9        c5        1
    x9        c9        1
    x9        c11       1
    x9        c15       1
    x9        c33       1
    x9        c35       1
    x9        c39       1
    x10       OBJ       1
    x10       c4        1
    x10       c6        1
    x10       c10       1
    x10       c12       1
    x10       c16       1
    x10       c34       1
    x10       c36       1
    x10       c40       1
    x11       OBJ       1
    x11       c3        1
    x11       c5        1
    x11       c9        1
    x11       c11       1
    x11       c17       1
    x11       c33       1
    x11       c35       1
    x11       c41       1
    x12       OBJ       1
    x12       c4        1
    x12       c6        1
    x12       c10       1
    x12       c12       1
    x12       c18       1
    x12       c34       1
    x12       c36       1
    x12       c42       1
    x13       OBJ       1
    x13       c7        1
    x13       c13       1
    x13       c15       1
    x13       c19       1
    x13       c21       1
    x13       c31       1
    x13       c37       1
    x13       c43       1
    x14       OBJ       1
    x14       c8        1
    x14       c14       1
    x14       c16       1
    x14       c20       1
    x14       c22       1
    x14       c32       1
    x14       c38       1
    x14       c44       1
    x15       OBJ       1
    x15       c9        1
    x15       c13       1
    x15       c15       1
    x15       c19       1
    x15       c21       1
    x15       c33       1
    x15       c39       1
    x15       c45       1
    x16       OBJ       1
    x16       c10       1
    x16       c14       1
    x16       c16       1
    x16       c20       1
    x16       c22       1
    x16       c34       1
    x16       c40       1
    x16       c46       1
    x17       OBJ       1
    x17       c11       1
    x17       c17       1
    x17       c18       1
    x17       c23       1
    x17       c24       1
    x17       c35       1
    x17       c41       1
    x17       c47       1
    x18       OBJ       1
    x18       c12       1
    x18       c17       1
    x18       c18       1
    x18       c23       1
    x18       c24       1
    x18       c36       1
    x18       c42       1
    x18       c48       1
    x19       OBJ       1
    x19       c13       1
    x19       c15       1
    x19       c19       1
    x19       c20       1
    x19       c21       1
    x19       c37       1
    x19       c43       1
    x19       c44       1
    x20       OBJ       1
    x20       c14       1
    x20       c16       1
    x20       c19       1
    x20       c20       1
    x20       c22       1
    x20       c38       1
    x20       c43       1
    x20       c44       1
    x21       OBJ       1
    x21       c13       1
    x21       c15       1
    x21       c19       1
    x21       c21       1
    x21       c23       1
    x21       c39       1
    x21       c45       1
    x21       c47       1
    x22       OBJ       1
    x22       c14       1
    x22       c16       1
    x22       c20       1
    x22       c22       1
    x22       c24       1
    x22       c40       1
    x22       c46       1
    x22       c48       1
    x23       OBJ       1
    x23       c17       1
    x23       c18       1
    x23       c21       1
    x23       c23       1
    x23       c24       1
    x23       c41       1
    x23       c45       1
    x23       c47       1
    x24       OBJ       1
    x24       c17       1
    x24       c18       1
    x24       c22       1
    x24       c23       1
    x24       c24       1
    x24       c42       1
    x24       c46       1
    x24       c48       1
    x25       OBJ       1
    x25       c1        1
    x25       c2        1
    x25       c3        1
    x25       c25       1
    x25       c26       1
    x25       c27       1
    x25       c49       1
    x25       c50       1
    x26       OBJ       1
    x26       c1        1
    x26       c2        1
    x26       c4        1
    x26       c25       1
    x26       c26       1
    x26       c28       1
    x26       c49       1
    x26       c50       1
    x27       OBJ       1
    x27       c1        1
    x27       c3        1
    x27       c5        1
    x27       c25       1
    x27       c27       1
    x27       c29       1
    x27       c51       1
    x27       c53       1
    x28       OBJ       1
    x28       c2        1
    x28       c4        1
    x28       c6        1
    x28       c26       1
    x28       c28       1
    x28       c30       1
    x28       c52       1
    x28       c54       1
    x29       OBJ       1
    x29       c3        1
    x29       c5        1
    x29       c6        1
    x29       c27       1
    x29       c29       1
    x29       c30       1
    x29       c51       1
    x29       c53       1
    x30       OBJ       1
    x30       c4        1
    x30       c5        1
    x30       c6        1
    x30       c28       1
    x30       c29       1
    x30       c30       1
    x30       c52       1
    x30       c54       1
    x31       OBJ       1
    x31       c7        1
    x31       c8        1
    x31       c13       1
    x31       c31       1
    x31       c32       1
    x31       c37       1
    x31       c55       1
    x31       c56       1
    x32       OBJ       1
    x32       c7        1
    x32       c8        1
    x32       c14       1
    x32       c31       1
    x32       c32       1
    x32       c38       1
    x32       c55       1
    x32       c56       1
    x33       OBJ       1
    x33       c9        1
    x33       c11       1
    x33       c15       1
    x33       c33       1
    x33       c35       1
    x33       c39       1
    x33       c57       1
    x33       c59       1
    x34       OBJ       1
    x34       c10       1
    x34       c12       1
    x34       c16       1
    x34       c34       1
    x34       c36       1
    x34       c40       1
    x34       c58       1
    x34       c60       1
    x35       OBJ       1
    x35       c9        1
    x35       c11       1
    x35       c17       1
    x35       c33       1
    x35       c35       1
    x35       c41       1
    x35       c57       1
    x35       c59       1
    x36       OBJ       1
    x36       c10       1
    x36       c12       1
    x36       c18       1
    x36       c34       1
    x36       c36       1
    x36       c42       1
    x36       c58       1
    x36       c60       1
    x37       OBJ       1
    x37       c7        1
    x37       c13       1
    x37       c19       1
    x37       c31       1
    x37       c37       1
    x37       c43       1
    x37       c61       1
    x37       c67       1
    x38       OBJ       1
    x38       c8        1
    x38       c14       1
    x38       c20       1
    x38       c32       1
    x38       c38       1
    x38       c44       1
    x38       c62       1
    x38       c68       1
    x39       OBJ       1
    x39       c9        1
    x39       c15       1
    x39       c21       1
    x39       c33       1
    x39       c39       1
    x39       c45       1
    x39       c63       1
    x39       c69       1
    x40       OBJ       1
    x40       c10       1
    x40       c16       1
    x40       c22       1
    x40       c34       1
    x40       c40       1
    x40       c46       1
    x40       c64       1
    x40       c70       1
    x41       OBJ       1
    x41       c11       1
    x41       c17       1
    x41       c23       1
    x41       c35       1
    x41       c41       1
    x41       c47       1
    x41       c65       1
    x41       c71       1
    x42       OBJ       1
    x42       c12       1
    x42       c18       1
    x42       c24       1
    x42       c36       1
    x42       c42       1
    x42       c48       1
    x42       c66       1
    x42       c72       1
    x43       OBJ       1
    x43       c13       1
    x43       c19       1
    x43       c20       1
    x43       c37       1
    x43       c43       1
    x43       c44       1
    x43       c61       1
    x43       c67       1
    x44       OBJ       1
    x44       c14       1
    x44       c19       1
    x44       c20       1
    x44       c38       1
    x44       c43       1
    x44       c44       1
    x44       c62       1
    x44       c68       1
    x45       OBJ       1
    x45       c15       1
    x45       c21       1
    x45       c23       1
    x45       c39       1
    x45       c45       1
    x45       c47       1
    x45       c63       1
    x45       c69       1
    x46       OBJ       1
    x46       c16       1
    x46       c22       1
    x46       c24       1
    x46       c40       1
    x46       c46       1
    x46       c48       1
    x46       c64       1
    x46       c70       1
    x47       OBJ       1
    x47       c17       1
    x47       c21       1
    x47       c23       1
    x47       c41       1
    x47       c45       1
    x47       c47       1
    x47       c65       1
    x47       c71       1
    x48       OBJ       1
    x48       c18       1
    x48       c22       1
    x48       c24       1
    x48       c42       1
    x48       c46       1
    x48       c48       1
    x48       c66       1
    x48       c72       1
    x49       OBJ       1
    x49       c25       1
    x49       c26       1
    x49       c49       1
    x49       c50       1
    x49       c55       1
    x49       c56       1
    x49       c73       1
    x49       c79       1
    x50       OBJ       1
    x50       c25       1
    x50       c26       1
    x50       c49       1
    x50       c50       1
    x50       c55       1
    x50       c56       1
    x50       c74       1
    x50       c80       1
    x51       OBJ       1
    x51       c27       1
    x51       c29       1
    x51       c51       1
    x51       c53       1
    x51       c57       1
    x51       c59       1
    x51       c75       1
    x51       c81       1
    x52       OBJ       1
    x52       c28       1
    x52       c30       1
    x52       c52       1
    x52       c54       1
    x52       c58       1
    x52       c60       1
    x52       c76       1
    x52       c82       1
    x53       OBJ       1
    x53       c27       1
    x53       c29       1
    x53       c51       1
    x53       c53       1
    x53       c57       1
    x53       c59       1
    x53       c77       1
    x53       c83       1
    x54       OBJ       1
    x54       c28       1
    x54       c30       1
    x54       c52       1
    x54       c54       1
    x54       c58       1
    x54       c60       1
    x54       c78       1
    x54       c84       1
    x55       OBJ       1
    x55       c31       1
    x55       c32       1
    x55       c49       1
    x55       c50       1
    x55       c55       1
    x55       c56       1
    x55       c73       1
    x55       c79       1
    x56       OBJ       1
    x56       c31       1
    x56       c32       1
    x56       c49       1
    x56       c50       1
    x56       c55       1
    x56       c56       1
    x56       c74       1
    x56       c80       1
    x57       OBJ       1
    x57       c33       1
    x57       c35       1
    x57       c51       1
    x57       c53       1
    x57       c57       1
    x57       c59       1
    x57       c75       1
    x57       c81       1
    x58       OBJ       1
    x58       c34       1
    x58       c36       1
    x58       c52       1
    x58       c54       1
    x58       c58       1
    x58       c60       1
    x58       c76       1
    x58       c82       1
    x59       OBJ       1
    x59       c33       1
    x59       c35       1
    x59       c51       1
    x59       c53       1
    x59       c57       1
    x59       c59       1
    x59       c77       1
    x59       c83       1
    x60       OBJ       1
    x60       c34       1
    x60       c36       1
    x60       c52       1
    x60       c54       1
    x60       c58       1
    x60       c60       1
    x60       c78       1
    x60       c84       1
    x61       OBJ       1
    x61       c37       1
    x61       c43       1
    x61       c61       1
    x61       c63       1
    x61       c67       1
    x61       c69       1
    x61       c85       1
    x61       c87       1
    x62       OBJ       1
    x62       c38       1
    x62       c44       1
    x62       c62       1
    x62       c64       1
    x62       c68       1
    x62       c70       1
    x62       c86       1
    x62       c88       1
    x63       OBJ       1
    x63       c39       1
    x63       c45       1
    x63       c61       1
    x63       c63       1
    x63       c67       1
    x63       c69       1
    x63       c85       1
    x63       c87       1
    x64       OBJ       1
    x64       c40       1
    x64       c46       1
    x64       c62       1
    x64       c64       1
    x64       c68       1
    x64       c70       1
    x64       c86       1
    x64       c88       1
    x65       OBJ       1
    x65       c41       1
    x65       c47       1
    x65       c65       1
    x65       c66       1
    x65       c71       1
    x65       c72       1
    x65       c89       1
    x65       c90       1
    x66       OBJ       1
    x66       c42       1
    x66       c48       1
    x66       c65       1
    x66       c66       1
    x66       c71       1
    x66       c72       1
    x66       c89       1
    x66       c90       1
    x67       OBJ       1
    x67       c37       1
    x67       c43       1
    x67       c61       1
    x67       c63       1
    x67       c67       1
    x67       c69       1
    x67       c91       1
    x67       c93       1
    x68       OBJ       1
    x68       c38       1
    x68       c44       1
    x68       c62       1
    x68       c64       1
    x68       c68       1
    x68       c70       1
    x68       c92       1
    x68       c94       1
    x69       OBJ       1
    x69       c39       1
    x69       c45       1
    x69       c61       1
    x69       c63       1
    x69       c67       1
    x69       c69       1
    x69       c91       1
    x69       c93       1
    x70       OBJ       1
    x70       c40       1
    x70       c46       1
    x70       c62       1
    x70       c64       1
    x70       c68       1
    x70       c70       1
    x70       c92       1
    x70       c94       1
    x71       OBJ       1
    x71       c41       1
    x71       c47       1
    x71       c65       1
    x71       c66       1
    x71       c71       1
    x71       c72       1
    x71       c95       1
    x71       c96       1
    x72       OBJ       1
    x72       c42       1
    x72       c48       1
    x72       c65       1
    x72       c66       1
    x72       c71       1
    x72       c72       1
    x72       c95       1
    x72       c96       1
    x73       OBJ       1
    x73       c49       1
    x73       c55       1
    x73       c73       1
    x73       c75       1
    x73       c79       1
    x73       c97       1
    x73       c99       1
    x73       c103      1
    x74       OBJ       1
    x74       c50       1
    x74       c56       1
    x74       c74       1
    x74       c76       1
    x74       c80       1
    x74       c98       1
    x74       c100      1
    x74       c104      1
    x75       OBJ       1
    x75       c51       1
    x75       c57       1
    x75       c73       1
    x75       c75       1
    x75       c81       1
    x75       c97       1
    x75       c99       1
    x75       c105      1
    x76       OBJ       1
    x76       c52       1
    x76       c58       1
    x76       c74       1
    x76       c76       1
    x76       c82       1
    x76       c98       1
    x76       c100      1
    x76       c106      1
    x77       OBJ       1
    x77       c53       1
    x77       c59       1
    x77       c77       1
    x77       c78       1
    x77       c83       1
    x77       c101      1
    x77       c102      1
    x77       c107      1
    x78       OBJ       1
    x78       c54       1
    x78       c60       1
    x78       c77       1
    x78       c78       1
    x78       c84       1
    x78       c101      1
    x78       c102      1
    x78       c108      1
    x79       OBJ       1
    x79       c49       1
    x79       c55       1
    x79       c73       1
    x79       c79       1
    x79       c85       1
    x79       c97       1
    x79       c103      1
    x79       c109      1
    x80       OBJ       1
    x80       c50       1
    x80       c56       1
    x80       c74       1
    x80       c80       1
    x80       c86       1
    x80       c98       1
    x80       c104      1
    x80       c110      1
    x81       OBJ       1
    x81       c51       1
    x81       c57       1
    x81       c75       1
    x81       c81       1
    x81       c87       1
    x81       c99       1
    x81       c105      1
    x81       c111      1
    x82       OBJ       1
    x82       c52       1
    x82       c58       1
    x82       c76       1
    x82       c82       1
    x82       c88       1
    x82       c100      1
    x82       c106      1
    x82       c112      1
    x83       OBJ       1
    x83       c53       1
    x83       c59       1
    x83       c77       1
    x83       c83       1
    x83       c89       1
    x83       c101      1
    x83       c107      1
    x83       c113      1
    x84       OBJ       1
    x84       c54       1
    x84       c60       1
    x84       c78       1
    x84       c84       1
    x84       c90       1
    x84       c102      1
    x84       c108      1
    x84       c114      1
    x85       OBJ       1
    x85       c61       1
    x85       c63       1
    x85       c79       1
    x85       c85       1
    x85       c87       1
    x85       c103      1
    x85       c109      1
    x85       c111      1
    x86       OBJ       1
    x86       c62       1
    x86       c64       1
    x86       c80       1
    x86       c86       1
    x86       c88       1
    x86       c104      1
    x86       c110      1
    x86       c112      1
    x87       OBJ       1
    x87       c61       1
    x87       c63       1
    x87       c81       1
    x87       c85       1
    x87       c87       1
    x87       c105      1
    x87       c109      1
    x87       c111      1
    x88       OBJ       1
    x88       c62       1
    x88       c64       1
    x88       c82       1
    x88       c86       1
    x88       c88       1
    x88       c106      1
    x88       c110      1
    x88       c112      1
    x89       OBJ       1
    x89       c65       1
    x89       c66       1
    x89       c83       1
    x89       c89       1
    x89       c90       1
    x89       c107      1
    x89       c113      1
    x89       c114      1
    x90       OBJ       1
    x90       c65       1
    x90       c66       1
    x90       c84       1
    x90       c89       1
    x90       c90       1
    x90       c108      1
    x90       c113      1
    x90       c114      1
    x91       OBJ       1
    x91       c67       1
    x91       c69       1
    x91       c91       1
    x91       c92       1
    x91       c93       1
    x91       c115      1
    x91       c116      1
    x91       c117      1
    x92       OBJ       1
    x92       c68       1
    x92       c70       1
    x92       c91       1
    x92       c92       1
    x92       c94       1
    x92       c115      1
    x92       c116      1
    x92       c118      1
    x93       OBJ       1
    x93       c67       1
    x93       c69       1
    x93       c91       1
    x93       c93       1
    x93       c95       1
    x93       c115      1
    x93       c117      1
    x93       c119      1
    x94       OBJ       1
    x94       c68       1
    x94       c70       1
    x94       c92       1
    x94       c94       1
    x94       c96       1
    x94       c116      1
    x94       c118      1
    x94       c120      1
    x95       OBJ       1
    x95       c71       1
    x95       c72       1
    x95       c93       1
    x95       c95       1
    x95       c96       1
    x95       c117      1
    x95       c119      1
    x95       c120      1
    x96       OBJ       1
    x96       c71       1
    x96       c72       1
    x96       c94       1
    x96       c95       1
    x96       c96       1
    x96       c118      1
    x96       c119      1
    x96       c120      1
    x97       OBJ       1
    x97       c73       1
    x97       c75       1
    x97       c79       1
    x97       c97       1
    x97       c98       1
    x97       c99       1
    x97       c103      1
    x97       c104      1
    x98       OBJ       1
    x98       c74       1
    x98       c76       1
    x98       c80       1
    x98       c97       1
    x98       c98       1
    x98       c100      1
    x98       c103      1
    x98       c104      1
    x99       OBJ       1
    x99       c73       1
    x99       c75       1
    x99       c81       1
    x99       c97       1
    x99       c99       1
    x99       c101      1
    x99       c105      1
    x99       c107      1
    x100      OBJ       1
    x100      c74       1
    x100      c76       1
    x100      c82       1
    x100      c98       1
    x100      c100      1
    x100      c102      1
    x100      c106      1
    x100      c108      1
    x101      OBJ       1
    x101      c77       1
    x101      c78       1
    x101      c83       1
    x101      c99       1
    x101      c101      1
    x101      c102      1
    x101      c105      1
    x101      c107      1
    x102      OBJ       1
    x102      c77       1
    x102      c78       1
    x102      c84       1
    x102      c100      1
    x102      c101      1
    x102      c102      1
    x102      c106      1
    x102      c108      1
    x103      OBJ       1
    x103      c73       1
    x103      c79       1
    x103      c85       1
    x103      c97       1
    x103      c98       1
    x103      c103      1
    x103      c104      1
    x103      c109      1
    x104      OBJ       1
    x104      c74       1
    x104      c80       1
    x104      c86       1
    x104      c97       1
    x104      c98       1
    x104      c103      1
    x104      c104      1
    x104      c110      1
    x105      OBJ       1
    x105      c75       1
    x105      c81       1
    x105      c87       1
    x105      c99       1
    x105      c101      1
    x105      c105      1
    x105      c107      1
    x105      c111      1
    x106      OBJ       1
    x106      c76       1
    x106      c82       1
    x106      c88       1
    x106      c100      1
    x106      c102      1
    x106      c106      1
    x106      c108      1
    x106      c112      1
    x107      OBJ       1
    x107      c77       1
    x107      c83       1
    x107      c89       1
    x107      c99       1
    x107      c101      1
    x107      c105      1
    x107      c107      1
    x107      c113      1
    x108      OBJ       1
    x108      c78       1
    x108      c84       1
    x108      c90       1
    x108      c100      1
    x108      c102      1
    x108      c106      1
    x108      c108      1
    x108      c114      1
    x109      OBJ       1
    x109      c79       1
    x109      c85       1
    x109      c87       1
    x109      c103      1
    x109      c109      1
    x109      c111      1
    x109      c115      1
    x109      c117      1
    x110      OBJ       1
    x110      c80       1
    x110      c86       1
    x110      c88       1
    x110      c104      1
    x110      c110      1
    x110      c112      1
    x110      c116      1
    x110      c118      1
    x111      OBJ       1
    x111      c81       1
    x111      c85       1
    x111      c87       1
    x111      c105      1
    x111      c109      1
    x111      c111      1
    x111      c115      1
    x111      c117      1
    x112      OBJ       1
    x112      c82       1
    x112      c86       1
    x112      c88       1
    x112      c106      1
    x112      c110      1
    x112      c112      1
    x112      c116      1
    x112      c118      1
    x113      OBJ       1
    x113      c83       1
    x113      c89       1
    x113      c90       1
    x113      c107      1
    x113      c113      1
    x113      c114      1
    x113      c119      1
    x113      c120      1
    x114      OBJ       1
    x114      c84       1
    x114      c89       1
    x114      c90       1
    x114      c108      1
    x114      c113      1
    x114      c114      1
    x114      c119      1
    x114      c120      1
    x115      OBJ       1
    x115      c91       1
    x115      c92       1
    x115      c93       1
    x115      c109      1
    x115      c111      1
    x115      c115      1
    x115      c116      1
    x115      c117      1
    x116      OBJ       1
    x116      c91       1
    x116      c92       1
    x116      c94       1
    x116      c110      1
    x116      c112      1
    x116      c115      1
    x116      c116      1
    x116      c118      1
    x117      OBJ       1
    x117      c91       1
    x117      c93       1
    x117      c95       1
    x117      c109      1
    x117      c111      1
    x117      c115      1
    x117      c117      1
    x117      c119      1
    x118      OBJ       1
    x118      c92       1
    x118      c94       1
    x118      c96       1
    x118      c110      1
    x118      c112      1
    x118      c116      1
    x118      c118      1
    x118      c120      1
    x119      OBJ       1
    x119      c93       1
    x119      c95       1
    x119      c96       1
    x119      c113      1
    x119      c114      1
    x119      c117      1
    x119      c119      1
    x119      c120      1
    x120      OBJ       1
    x120      c94       1
    x120      c95       1
    x120      c96       1
    x120      c113      1
    x120      c114      1
    x120      c118      1
    x120      c119      1
    x120      c120      1
    MARKER    'MARKER'                 'INTEND'
RHS
    RHS1      c1        1
    RHS1      c2        1
    RHS1      c3        1
    RHS1      c4        1
    RHS1      c5        1
    RHS1      c6        1
    RHS1      c7        1
    RHS1      c8        1
    RHS1      c9        1
    RHS1      c10       1
    RHS1      c11       1
    RHS1      c12       1
    RHS1      c13       1
    RHS1      c14       1
    RHS1      c15       1
    RHS1      c16       1
    RHS1      c17       1
    RHS1      c18       1
    RHS1      c19       1
    RHS1      c20       1
    RHS1      c21       1
    RHS1      c22       1
    RHS1      c23       1
    RHS1      c24       1
    RHS1      c25       1
    RHS1      c26       1
    RHS1      c27       1
    RHS1      c28       1
    RHS1      c29       1
    RHS1      c30       1
    RHS1      c31       1
    RHS1      c32       1
    RHS1      c33       1
    RHS1      c34       1
    RHS1      c35       1
    RHS1      c36       1
    RHS1      c37       1
    RHS1      c38       1
    RHS1      c39       1
    RHS1      c40       1
    RHS1      c41       1
    RHS1      c42       1
    RHS1      c43       1
    RHS1      c44       1
    RHS1      c45       1
    RHS1      c46       1
    RHS1      c47       1
    RHS1      c48       1
    RHS1      c49       1
    RHS1      c50       1
    RHS1      c51       1
    RHS1      c52       1
    RHS1      c53       1
    RHS1      c54       1
    RHS1      c55       1
    RHS1      c56       1
    RHS1      c57       1
    RHS1      c58       1
    RHS1      c59       1
    RHS1      c60       1
    RHS1      c61       1
    RHS1      c62       1
    RHS1      c63       1
    RHS1      c64       1
    RHS1      c65       1
    RHS1      c66       1
    RHS1      c67       1
    RHS1      c68       1
    RHS1      c69       1
    RHS1      c70       1
    RHS1      c71       1
    RHS1      c72       1
    RHS1      c73       1
    RHS1      c74       1
    RHS1      c75       1
    RHS1      c76       1
    RHS1      c77       1
    RHS1      c78       1
    RHS1      c79       1
    RHS1      c80       1
    RHS1      c81       1
    RHS1      c82       1
    RHS1      c83       1
    RHS1      c84       1
    RHS1      c85       1
    RHS1      c86       1
    RHS1      c87       1
    RHS1      c88       1
    RHS1      c89       1
    RHS1      c90       1
    RHS1      c91       1
    RHS1      c92       1
    RHS1      c93       1
    RHS1      c94       1
    RHS1      c95       1
    RHS1      c96       1
    RHS1      c97       1
    RHS1      c98       1
    RHS1      c99       1
    RHS1      c100      1
    RHS1      c101      1
    RHS1      c102      1
    RHS1      c103      1
    RHS1      c104      1
    RHS1      c105      1
    RHS1      c106      1
    RHS1      c107      1
    RHS1      c108      1
    RHS1      c109      1
    RHS1      c110      1
    RHS1      c111      1
    RHS1      c112      1
    RHS1      c113      1
    RHS1      c114      1
    RHS1      c115      1
    RHS1      c116      1
    RHS1      c117      1
    RHS1      c118      1
    RHS1      c119      1
    RHS1      c120      1
BOUNDS
 BV BND1      x1      
 BV BND1      x2      
 BV BND1      x3      
 BV BND1      x4      
 BV BND1      x5      
 BV BND1      x6      
 BV BND1      x7      
 BV BND1      x8      
 BV BND1      x9      
 BV BND1      x10     
 BV BND1      x11     
 BV BND1      x12     
 BV BND1      x13     
 BV BND1      x14     
 BV BND1      x15     
 BV BND1      x16     
 BV BND1      x17     
 BV BND1      x18     
 BV BND1      x19     
 BV BND1      x20     
 BV BND1      x21     
 BV BND1      x22     
 BV BND1      x23     
 BV BND1      x24     
 BV BND1      x25     
 BV BND1      x26     
 BV BND1      x27     
 BV BND1      x28     
 BV BND1      x29     
 BV BND1      x30     
 BV BND1      x31     
 BV BND1      x32     
 BV BND1      x33     
 BV BND1      x34     
 BV BND1      x35     
 BV BND1      x36     
 BV BND1      x37     
 BV BND1      x38     
 BV BND1      x39     
 BV BND1      x40     
 BV BND1      x41     
 BV BND1      x42     
 BV BND1      x43     
 BV BND1      x44     
 BV BND1      x45     
 BV BND1      x46     
 BV BND1      x47     
 BV BND1      x48     
 BV BND1      x49     
 BV BND1      x50     
 BV BND1      x51     
 BV BND1      x52     
 BV BND1      x53     
 BV BND1      x54     
 BV BND1      x55     
 BV BND1      x56     
 BV BND1      x57     
 BV BND1      x58     
 BV BND1      x59     
 BV BND1      x60     
 BV BND1      x61     
 BV BND1      x62     
 BV BND1      x63     
 BV BND1      x64     
 BV BND1      x65     
 BV BND1      x66     
 BV BND1      x67     
 BV BND1      x68     
 BV BND1      x69     
 BV BND1      x70     
 BV BND1      x71     
 BV BND1      x72     
 BV BND1      x73     
 BV BND1      x74     
 BV BND1      x75     
 BV BND1      x76     
 BV BND1      x77     
 BV BND1      x78     
 BV BND1      x79     
 BV BND1      x80     
 BV BND1      x81     
 BV BND1      x82     
 BV BND1      x83     
 BV BND1      x84     
 BV BND1      x85     
 BV BND1      x86     
 BV BND1      x87     
 BV BND1      x88     
 BV BND1      x89     
 BV BND1      x90     
 BV BND1      x91     
 BV BND1      x92     
 BV BND1      x93     
 BV BND1      x94     
 BV BND1      x95     
 BV BND1      x96     
 BV BND1      x97     
 BV BND1      x98     
 BV BND1      x99     
 BV BND1      x100    
 BV BND1      x101    
 BV BND1      x102    
 BV BND1      x103    
 BV BND1      x104    
 BV BND1      x105    
 BV BND1      x106    
 BV BND1      x107    
 BV BND1      x108    
 BV BND1      x109    
 BV BND1      x110    
 BV BND1      x111    
 BV BND1      x112    
 BV BND1      x113    
 BV BND1      x114    
 BV BND1      x115    
 BV BND1      x116    
 BV BND1      x117    
 BV BND1      x118    
 BV BND1      x119    
 BV BND1      x120    
ENDATA
